NAME : morphed20-2-32
COMMENT : Generated using the function morphInstances from the R-package netgen (Bossek,2015) - Number of clusters: 2 Alpha: 0.5
TYPE : TSP
DIMENSION : 20
EDGE_WEIGHT_TYPE : EUC_2D
NODE_COORD_SECTION
1 45.6240637381 76.674969348
2 55.8764453236 90.929501101
3 41.9270602384 42.0642306749
4 39.1411844809 22.8117204326
5 12.6701312036 54.5256691536
6 67.2076148613 97.9234283253
7 43.6909433789 42.9653620382
8 66.2747892143 66.8791489603
9 34.4459518398 48.3416838996
10 22.5019869105 63.2532017008
11 40.6325715398 35.937198431
12 33.1934019784 91.0850180472
13 56.1757156562 92.2672057771
14 70.4059471416 84.9607385061
15 22.961997188 43.3568993623
16 61.2404578947 85.4785789455
17 44.6239097525 45.960090394
18 23.2608181716 20.319213746
19 57.0909900999 83.1366622287
20 73.0473430673 98.5789114623
EOF
